DIMACS_lns/graph-1000-755.col
p edge 1000 1812
e 1 597
e 1 983
e 1 922
e 1 504
e 1 24
e 2 842
e 2 431
e 2 856
e 2 482
e 3 522
e 3 421
e 3 997
e 3 150
e 5 472
e 5 385
e 5 402
e 7 227
e 7 369
e 7 584
e 7 688
e 7 988
e 8 48
e 8 485
e 8 63
e 8 955
e 9 725
e 9 500
e 9 701
e 9 384
e 10 570
e 10 479
e 10 881
e 10 98
e 11 202
e 11 723
e 11 776
e 11 235
e 12 191
e 12 644
e 12 365
e 12 711
e 17 370
e 17 149
e 17 222
e 17 317
e 18 187
e 18 433
e 18 897
e 18 422
e 18 833
e 19 547
e 19 382
e 19 424
e 22 729
e 22 668
e 22 860
e 22 584
e 23 328
e 23 897
e 23 696
e 23 844
e 23 729
e 23 565
e 23 283
e 24 610
e 24 371
e 25 639
e 25 187
e 25 813
e 25 789
e 25 215
e 25 959
e 26 771
e 26 809
e 26 275
e 26 188
e 26 970
e 27 730
e 27 746
e 27 188
e 27 382
e 29 310
e 29 383
e 29 954
e 29 790
e 30 951
e 30 355
e 30 36
e 30 805
e 30 201
e 32 895
e 32 354
e 32 630
e 32 769
e 32 61
e 32 275
e 33 535
e 33 757
e 33 616
e 33 238
e 33 472
e 35 998
e 35 801
e 35 953
e 36 459
e 36 39
e 36 659
e 36 737
e 36 364
e 36 158
e 36 175
e 37 260
e 37 217
e 37 437
e 37 198
e 37 301
e 37 106
e 38 678
e 38 850
e 38 673
e 38 327
e 38 916
e 39 327
e 39 865
e 39 962
e 39 729
e 40 251
e 40 773
e 40 970
e 40 121
e 40 681
e 40 638
e 41 379
e 41 875
e 41 141
e 41 91
e 42 68
e 42 830
e 42 194
e 44 876
e 44 724
e 44 161
e 44 992
e 45 605
e 45 935
e 45 847
e 46 378
e 46 832
e 46 780
e 46 402
e 46 200
e 47 260
e 47 68
e 47 145
e 48 344
e 48 629
e 48 829
e 50 991
e 50 479
e 50 174
e 50 267
e 50 573
e 50 413
e 50 735
e 52 959
e 52 142
e 52 200
e 53 153
e 53 456
e 53 123
e 57 895
e 57 143
e 57 725
e 57 565
e 58 508
e 58 520
e 58 997
e 59 780
e 59 771
e 59 163
e 59 976
e 60 978
e 60 160
e 60 344
e 60 735
e 60 753
e 61 96
e 61 275
e 61 488
e 61 260
e 61 753
e 61 499
e 62 678
e 62 530
e 62 903
e 62 677
e 62 315
e 62 116
e 62 842
e 62 929
e 63 935
e 63 123
e 63 427
e 63 701
e 64 563
e 64 967
e 64 592
e 64 722
e 64 334
e 64 127
e 65 803
e 65 198
e 65 805
e 65 92
e 65 200
e 65 205
e 65 823
e 66 523
e 66 946
e 66 158
e 67 400
e 67 151
e 67 178
e 67 555
e 68 441
e 68 201
e 70 378
e 70 938
e 70 568
e 70 215
e 70 786
e 71 129
e 71 524
e 71 434
e 71 327
e 71 497
e 71 778
e 71 845
e 71 663
e 72 82
e 72 736
e 72 611
e 72 967
e 72 894
e 73 464
e 73 421
e 73 150
e 73 432
e 74 369
e 74 252
e 74 808
e 75 843
e 75 208
e 75 412
e 75 163
e 75 445
e 79 375
e 79 697
e 79 180
e 79 525
e 79 267
e 80 219
e 80 691
e 80 907
e 80 427
e 80 476
e 82 922
e 82 766
e 82 752
e 84 467
e 84 581
e 84 390
e 85 658
e 85 747
e 85 794
e 85 208
e 85 470
e 85 419
e 85 530
e 85 300
e 86 992
e 86 908
e 86 821
e 87 382
e 87 567
e 87 197
e 87 947
e 91 119
e 91 678
e 91 466
e 91 709
e 92 332
e 92 806
e 92 359
e 92 395
e 92 300
e 93 796
e 93 902
e 93 201
e 94 448
e 94 441
e 94 453
e 94 641
e 94 643
e 95 931
e 95 241
e 95 218
e 95 895
e 96 699
e 96 448
e 96 723
e 96 742
e 96 368
e 96 434
e 97 712
e 97 253
e 97 138
e 97 139
e 98 872
e 98 860
e 98 203
e 98 572
e 98 311
e 99 933
e 99 660
e 99 340
e 99 842
e 99 742
e 99 798
e 99 931
e 99 663
e 103 647
e 103 455
e 103 555
e 104 709
e 104 406
e 104 449
e 104 489
e 104 958
e 104 755
e 106 144
e 106 227
e 106 357
e 106 368
e 106 823
e 106 498
e 106 280
e 107 917
e 107 198
e 107 355
e 107 159
e 110 848
e 110 687
e 110 961
e 110 349
e 111 182
e 111 322
e 111 514
e 111 159
e 111 116
e 114 490
e 114 586
e 114 853
e 114 655
e 114 375
e 114 186
e 116 340
e 116 246
e 116 849
e 117 647
e 117 181
e 117 171
e 117 686
e 119 281
e 119 737
e 120 903
e 120 236
e 120 171
e 120 665
e 120 992
e 121 227
e 121 322
e 121 407
e 123 745
e 123 509
e 123 530
e 123 613
e 123 391
e 123 211
e 125 865
e 125 825
e 125 251
e 125 829
e 125 856
e 127 983
e 127 360
e 127 369
e 127 219
e 128 989
e 128 525
e 128 253
e 128 748
e 128 307
e 128 586
e 128 753
e 129 145
e 129 429
e 130 293
e 130 594
e 130 368
e 130 682
e 130 948
e 132 562
e 132 422
e 132 235
e 133 355
e 133 972
e 133 485
e 133 281
e 133 886
e 135 385
e 135 160
e 135 388
e 137 635
e 137 458
e 137 518
e 137 603
e 138 798
e 138 464
e 138 215
e 138 211
e 138 365
e 139 338
e 139 728
e 139 154
e 139 499
e 141 844
e 141 283
e 141 529
e 142 721
e 142 893
e 142 892
e 143 687
e 143 540
e 143 991
e 143 848
e 143 366
e 144 529
e 144 695
e 144 466
e 144 541
e 144 483
e 145 596
e 145 165
e 145 369
e 145 367
e 145 204
e 145 946
e 146 782
e 146 978
e 146 392
e 146 660
e 146 646
e 147 949
e 147 595
e 147 319
e 147 850
e 149 218
e 149 453
e 149 932
e 150 823
e 151 517
e 151 344
e 151 237
e 151 201
e 151 564
e 151 837
e 151 306
e 153 667
e 153 331
e 153 388
e 154 370
e 154 790
e 154 486
e 155 327
e 155 687
e 155 932
e 156 810
e 156 643
e 156 304
e 156 788
e 156 708
e 157 742
e 157 614
e 157 629
e 157 222
e 157 917
e 157 667
e 158 228
e 159 359
e 160 200
e 160 867
e 161 285
e 161 578
e 161 359
e 161 728
e 161 399
e 161 670
e 163 479
e 163 362
e 163 709
e 163 729
e 164 724
e 164 212
e 164 600
e 164 547
e 164 792
e 165 412
e 165 785
e 165 650
e 165 188
e 167 450
e 167 961
e 167 286
e 168 417
e 168 243
e 168 516
e 168 514
e 168 330
e 170 342
e 170 699
e 170 431
e 170 925
e 171 833
e 171 173
e 171 696
e 171 969
e 173 816
e 173 782
e 174 686
e 174 955
e 174 383
e 174 797
e 174 183
e 175 632
e 175 662
e 175 220
e 176 234
e 176 564
e 176 609
e 176 674
e 176 629
e 176 497
e 176 223
e 177 415
e 177 645
e 177 529
e 178 185
e 178 594
e 178 572
e 178 497
e 178 867
e 178 322
e 178 940
e 180 704
e 180 321
e 180 284
e 180 916
e 180 242
e 180 293
e 181 950
e 181 867
e 182 329
e 182 242
e 182 914
e 182 280
e 182 988
e 183 664
e 183 768
e 184 965
e 184 955
e 184 204
e 184 498
e 184 930
e 184 335
e 184 819
e 185 632
e 185 333
e 186 491
e 186 348
e 186 211
e 186 952
e 186 476
e 187 189
e 187 720
e 187 606
e 187 670
e 188 496
e 188 341
e 189 997
e 189 496
e 191 437
e 191 456
e 192 711
e 192 732
e 192 398
e 194 361
e 194 976
e 197 246
e 197 204
e 198 410
e 198 535
e 198 556
e 199 688
e 199 358
e 199 747
e 200 967
e 200 868
e 201 938
e 201 834
e 202 919
e 202 615
e 202 241
e 203 909
e 203 834
e 203 818
e 204 829
e 204 374
e 204 877
e 204 693
e 205 844
e 205 675
e 205 877
e 206 542
e 206 889
e 206 796
e 206 771
e 207 582
e 207 625
e 207 506
e 208 818
e 208 504
e 209 879
e 209 399
e 209 894
e 210 577
e 210 660
e 210 504
e 210 715
e 211 287
e 211 273
e 211 290
e 211 572
e 211 699
e 211 468
e 212 827
e 212 660
e 212 856
e 215 511
e 216 286
e 216 290
e 216 753
e 217 790
e 217 375
e 217 297
e 217 391
e 217 332
e 218 252
e 218 520
e 218 606
e 219 774
e 219 408
e 220 629
e 220 577
e 220 943
e 220 798
e 220 746
e 221 969
e 221 724
e 221 336
e 221 951
e 221 769
e 221 790
e 222 383
e 223 680
e 223 353
e 223 899
e 224 421
e 224 283
e 224 695
e 225 800
e 225 965
e 225 338
e 226 535
e 226 603
e 226 833
e 227 947
e 227 896
e 227 967
e 228 681
e 228 328
e 228 307
e 228 290
e 228 767
e 228 327
e 231 410
e 231 255
e 231 370
e 232 307
e 232 693
e 232 295
e 234 796
e 234 497
e 234 803
e 234 932
e 234 416
e 235 931
e 235 567
e 235 785
e 235 871
e 236 322
e 236 488
e 236 461
e 236 469
e 236 733
e 237 241
e 237 407
e 237 752
e 238 307
e 238 831
e 239 799
e 239 948
e 239 470
e 239 514
e 239 720
e 240 926
e 240 424
e 240 972
e 241 455
e 241 609
e 241 849
e 242 538
e 243 329
e 243 626
e 243 509
e 243 427
e 243 991
e 243 938
e 246 546
e 246 370
e 247 353
e 247 845
e 247 705
e 247 655
e 248 987
e 248 782
e 248 868
e 248 736
e 248 746
e 248 366
e 248 421
e 248 337
e 249 603
e 249 910
e 249 578
e 249 465
e 249 659
e 250 630
e 250 311
e 250 741
e 250 689
e 251 356
e 252 665
e 252 716
e 252 625
e 252 601
e 252 571
e 253 662
e 253 737
e 253 719
e 254 378
e 254 337
e 254 726
e 255 868
e 255 633
e 255 277
e 255 704
e 255 523
e 257 571
e 257 816
e 257 896
e 257 371
e 260 301
e 260 647
e 260 948
e 260 903
e 265 472
e 265 961
e 265 674
e 265 682
e 265 443
e 265 553
e 265 497
e 266 305
e 266 423
e 266 776
e 267 586
e 267 896
e 267 524
e 268 906
e 268 584
e 268 478
e 268 647
e 268 500
e 271 889
e 271 375
e 271 933
e 273 813
e 273 446
e 273 854
e 275 288
e 275 773
e 275 407
e 276 541
e 276 976
e 276 833
e 277 520
e 277 450
e 277 785
e 277 970
e 278 964
e 278 918
e 278 362
e 278 312
e 278 356
e 279 957
e 279 609
e 279 905
e 279 377
e 280 798
e 280 328
e 281 644
e 281 765
e 281 626
e 281 936
e 284 900
e 284 662
e 284 680
e 284 300
e 284 325
e 285 572
e 285 718
e 286 426
e 286 982
e 286 488
e 286 932
e 286 774
e 286 288
e 287 311
e 287 685
e 287 609
e 287 679
e 288 473
e 288 967
e 290 795
e 290 662
e 293 618
e 293 858
e 293 877
e 293 786
e 293 512
e 294 758
e 294 371
e 294 392
e 295 890
e 295 921
e 295 943
e 295 406
e 296 958
e 296 497
e 296 677
e 296 540
e 297 902
e 297 649
e 300 530
e 301 450
e 301 906
e 301 972
e 301 344
e 301 606
e 301 633
e 301 553
e 303 342
e 303 690
e 303 483
e 303 643
e 303 735
e 304 871
e 304 829
e 304 788
e 304 485
e 305 648
e 305 854
e 306 799
e 306 401
e 307 550
e 307 954
e 307 319
e 307 328
e 307 711
e 310 988
e 310 789
e 310 898
e 311 614
e 311 350
e 312 689
e 312 996
e 312 592
e 312 877
e 315 675
e 315 669
e 315 799
e 315 699
e 315 475
e 317 472
e 317 644
e 317 936
e 317 467
e 319 837
e 319 337
e 319 653
e 319 777
e 319 923
e 319 945
e 320 845
e 320 688
e 320 616
e 321 537
e 321 485
e 322 348
e 322 616
e 322 586
e 323 929
e 323 486
e 323 463
e 323 869
e 325 354
e 325 473
e 325 975
e 325 516
e 325 605
e 326 469
e 326 783
e 326 349
e 326 901
e 326 483
e 326 641
e 326 819
e 326 487
e 327 595
e 327 786
e 327 598
e 327 925
e 327 485
e 328 961
e 328 954
e 328 916
e 329 778
e 329 479
e 329 491
e 329 901
e 329 443
e 330 445
e 330 536
e 330 951
e 330 774
e 330 586
e 331 726
e 331 458
e 331 843
e 332 377
e 332 467
e 333 510
e 333 806
e 333 836
e 334 524
e 334 923
e 334 655
e 335 953
e 335 842
e 335 388
e 335 422
e 336 892
e 336 878
e 336 677
e 336 550
e 337 577
e 338 616
e 338 361
e 340 510
e 341 629
e 341 606
e 341 434
e 341 948
e 341 578
e 342 487
e 342 534
e 344 505
e 344 957
e 348 877
e 348 596
e 349 633
e 349 432
e 349 779
e 349 650
e 349 512
e 350 366
e 350 738
e 350 396
e 353 952
e 353 994
e 353 908
e 354 458
e 355 689
e 355 788
e 355 538
e 356 748
e 356 471
e 356 576
e 356 496
e 356 949
e 357 985
e 357 825
e 358 498
e 358 797
e 359 649
e 359 957
e 360 836
e 360 488
e 360 710
e 360 870
e 361 400
e 362 794
e 362 853
e 362 988
e 363 879
e 363 501
e 363 725
e 363 872
e 363 379
e 363 639
e 364 673
e 364 805
e 364 722
e 365 598
e 365 730
e 366 802
e 366 528
e 366 395
e 367 873
e 367 815
e 368 927
e 368 838
e 368 929
e 368 409
e 370 789
e 370 869
e 370 926
e 371 907
e 371 672
e 371 730
e 374 584
e 374 832
e 374 785
e 375 809
e 375 667
e 377 679
e 377 481
e 378 975
e 378 977
e 378 691
e 379 646
e 379 597
e 380 715
e 380 433
e 380 996
e 381 976
e 381 860
e 381 882
e 382 408
e 382 962
e 382 753
e 382 563
e 382 710
e 383 957
e 384 892
e 384 682
e 384 800
e 384 687
e 385 844
e 385 789
e 386 481
e 386 618
e 386 754
e 388 957
e 388 803
e 390 765
e 390 410
e 390 396
e 391 1000
e 391 662
e 391 830
e 392 776
e 392 823
e 392 774
e 392 681
e 392 838
e 392 448
e 392 879
e 394 878
e 394 650
e 394 970
e 394 398
e 395 464
e 396 943
e 396 523
e 397 798
e 397 788
e 397 471
e 397 586
e 397 779
e 398 433
e 399 899
e 399 608
e 399 537
e 400 688
e 400 479
e 400 732
e 401 878
e 401 978
e 401 672
e 401 868
e 401 691
e 402 597
e 402 639
e 404 972
e 404 587
e 404 839
e 404 665
e 404 935
e 406 881
e 406 907
e 406 466
e 407 668
e 407 479
e 407 492
e 407 582
e 408 862
e 408 761
e 409 778
e 409 676
e 409 706
e 409 614
e 409 788
e 409 994
e 410 958
e 410 629
e 410 708
e 412 849
e 412 632
e 412 474
e 413 724
e 413 538
e 415 778
e 415 649
e 415 733
e 415 906
e 416 525
e 416 947
e 417 530
e 417 722
e 417 675
e 419 949
e 419 938
e 421 710
e 421 755
e 422 518
e 422 829
e 423 971
e 423 869
e 424 516
e 424 983
e 426 435
e 426 957
e 426 474
e 427 948
e 427 752
e 427 573
e 428 649
e 428 553
e 428 905
e 428 965
e 429 824
e 429 467
e 429 894
e 429 592
e 429 952
e 430 854
e 430 895
e 430 838
e 431 827
e 431 903
e 432 834
e 432 574
e 433 972
e 433 550
e 434 476
e 434 448
e 434 614
e 435 766
e 435 437
e 437 663
e 437 878
e 441 544
e 441 608
e 443 908
e 443 641
e 444 977
e 444 538
e 444 868
e 444 891
e 445 735
e 445 525
e 445 909
e 445 768
e 446 827
e 446 510
e 448 821
e 448 645
e 448 524
e 448 490
e 449 815
e 449 622
e 453 766
e 453 478
e 453 594
e 453 799
e 455 720
e 455 657
e 456 600
e 456 472
e 458 790
e 458 926
e 458 905
e 458 842
e 459 953
e 459 903
e 459 972
e 461 804
e 461 854
e 463 536
e 463 975
e 464 676
e 464 846
e 464 572
e 465 706
e 465 816
e 465 900
e 466 629
e 466 969
e 466 675
e 466 882
e 467 802
e 467 941
e 468 955
e 468 930
e 468 736
e 469 772
e 469 653
e 469 479
e 470 563
e 470 777
e 471 520
e 472 919
e 472 558
e 472 581
e 473 667
e 473 854
e 474 951
e 474 788
e 475 726
e 475 490
e 476 529
e 478 710
e 481 872
e 481 945
e 482 850
e 482 592
e 483 510
e 483 695
e 486 929
e 486 574
e 487 528
e 487 581
e 488 742
e 488 565
e 488 688
e 489 718
e 489 808
e 489 600
e 490 789
e 490 656
e 491 831
e 491 927
e 491 664
e 492 780
e 492 512
e 492 914
e 493 927
e 493 836
e 493 578
e 494 951
e 494 535
e 494 929
e 494 626
e 496 801
e 496 528
e 496 703
e 496 625
e 498 536
e 498 645
e 499 839
e 499 630
e 500 930
e 501 601
e 501 569
e 504 545
e 504 800
e 504 725
e 504 658
e 504 801
e 504 844
e 505 735
e 505 838
e 505 773
e 505 909
e 506 951
e 506 900
e 506 523
e 506 716
e 506 682
e 508 977
e 508 631
e 508 677
e 508 951
e 508 621
e 509 766
e 509 535
e 510 609
e 511 586
e 511 596
e 512 754
e 512 772
e 514 976
e 514 971
e 514 884
e 514 780
e 514 946
e 514 830
e 516 746
e 516 804
e 516 948
e 516 761
e 516 703
e 517 567
e 517 614
e 517 794
e 518 523
e 518 597
e 518 558
e 520 648
e 520 962
e 521 669
e 521 870
e 521 777
e 522 924
e 522 834
e 523 755
e 525 535
e 525 773
e 528 534
e 528 833
e 528 594
e 528 785
e 530 888
e 534 879
e 536 699
e 536 865
e 536 556
e 537 667
e 537 659
e 538 558
e 540 809
e 541 619
e 541 978
e 541 802
e 542 679
e 542 656
e 543 943
e 543 679
e 543 663
e 544 777
e 544 878
e 544 637
e 544 728
e 544 680
e 544 851
e 545 806
e 545 999
e 545 851
e 546 587
e 546 605
e 546 805
e 546 815
e 547 833
e 547 573
e 547 648
e 547 716
e 550 675
e 553 686
e 553 648
e 553 896
e 553 562
e 554 962
e 554 873
e 554 818
e 554 869
e 555 897
e 556 716
e 556 723
e 558 744
e 558 815
e 562 737
e 562 564
e 563 580
e 563 908
e 563 935
e 564 698
e 564 847
e 565 755
e 565 929
e 567 890
e 567 929
e 568 955
e 568 834
e 568 809
e 569 631
e 569 851
e 570 782
e 570 778
e 570 741
e 571 935
e 571 710
e 571 611
e 571 819
e 572 813
e 572 1000
e 572 609
e 574 702
e 574 613
e 574 1000
e 576 731
e 576 768
e 576 644
e 577 647
e 577 712
e 580 719
e 580 884
e 582 644
e 584 935
e 584 754
e 586 708
e 586 869
e 586 737
e 587 984
e 593 940
e 593 688
e 593 801
e 594 767
e 594 752
e 595 903
e 596 892
e 597 707
e 598 809
e 600 765
e 600 999
e 600 879
e 601 608
e 603 890
e 605 884
e 605 815
e 605 732
e 605 958
e 605 794
e 605 673
e 606 783
e 606 691
e 608 626
e 608 941
e 608 702
e 608 754
e 609 723
e 610 834
e 610 830
e 610 907
e 610 941
e 610 886
e 611 943
e 613 638
e 613 846
e 613 621
e 615 637
e 615 950
e 617 716
e 617 982
e 617 805
e 618 971
e 618 621
e 619 741
e 619 639
e 622 868
e 622 923
e 625 876
e 625 721
e 626 910
e 626 764
e 629 906
e 629 830
e 629 690
e 630 664
e 630 721
e 631 648
e 632 969
e 635 705
e 635 829
e 635 910
e 635 878
e 636 701
e 636 844
e 636 932
e 637 738
e 637 685
e 638 758
e 638 850
e 639 656
e 641 824
e 643 996
e 643 880
e 644 965
e 646 961
e 647 797
e 648 957
e 649 671
e 649 776
e 649 964
e 650 900
e 653 831
e 653 854
e 657 889
e 657 882
e 658 799
e 658 862
e 658 882
e 658 893
e 658 970
e 658 891
e 660 873
e 660 825
e 660 830
e 662 897
e 662 693
e 663 858
e 664 669
e 664 958
e 665 722
e 667 695
e 667 799
e 668 849
e 668 741
e 668 754
e 668 896
e 669 722
e 670 906
e 671 886
e 671 689
e 672 876
e 672 970
e 672 748
e 673 862
e 674 929
e 675 890
e 676 888
e 678 707
e 679 698
e 680 989
e 680 778
e 682 878
e 685 710
e 685 957
e 685 788
e 687 803
e 687 771
e 688 725
e 688 976
e 688 907
e 688 780
e 688 799
e 689 772
e 690 702
e 690 720
e 690 988
e 695 833
e 695 707
e 696 965
e 697 941
e 697 862
e 697 935
e 698 856
e 699 888
e 701 735
e 701 906
e 701 954
e 701 710
e 702 769
e 703 736
e 704 777
e 704 742
e 704 821
e 705 757
e 705 854
e 706 712
e 706 824
e 707 910
e 707 721
e 708 905
e 709 867
e 710 858
e 710 893
e 711 894
e 711 880
e 711 886
e 712 891
e 712 783
e 712 997
e 715 954
e 716 948
e 716 859
e 718 959
e 718 805
e 718 720
e 719 839
e 719 943
e 719 778
e 719 906
e 720 725
e 721 945
e 721 860
e 721 997
e 721 897
e 722 731
e 723 947
e 723 954
e 724 982
e 724 794
e 725 778
e 725 997
e 726 737
e 728 786
e 728 800
e 729 777
e 730 925
e 731 940
e 731 977
e 733 943
e 733 810
e 735 837
e 735 931
e 735 818
e 736 985
e 736 805
e 737 796
e 738 769
e 741 925
e 741 931
e 741 805
e 741 845
e 741 899
e 742 795
e 742 914
e 742 970
e 744 813
e 744 809
e 744 946
e 745 989
e 745 831
e 747 987
e 754 780
e 755 933
e 757 950
e 758 768
e 761 869
e 764 778
e 764 936
e 765 952
e 766 918
e 767 961
e 767 927
e 768 843
e 768 839
e 773 957
e 774 927
e 776 947
e 777 832
e 779 802
e 780 860
e 780 972
e 782 868
e 782 837
e 783 878
e 786 805
e 788 945
e 788 808
e 790 804
e 792 918
e 792 898
e 795 843
e 798 945
e 799 970
e 800 884
e 800 827
e 801 985
e 805 892
e 805 810
e 810 846
e 816 865
e 816 954
e 818 888
e 819 870
e 819 890
e 825 829
e 825 870
e 832 920
e 832 856
e 832 889
e 836 977
e 842 943
e 842 873
e 844 984
e 846 919
e 846 971
e 847 924
e 848 898
e 851 936
e 853 893
e 856 964
e 856 859
e 858 932
e 859 865
e 862 875
e 862 920
e 862 954
e 869 921
e 871 940
e 871 947
e 871 943
e 873 946
e 875 994
e 880 951
e 881 932
e 881 918
e 883 941
e 883 951
e 883 975
e 886 938
e 886 955
e 888 996
e 893 970
e 893 991
e 896 919
e 898 924
e 900 941
e 901 984
e 902 930
e 902 958
e 905 982
e 906 984
e 906 922
e 909 961
e 910 987
e 914 967
e 917 975
e 920 971
e 921 970
e 923 992
e 926 938
e 927 998
e 931 999
e 936 985
e 954 971
e 967 984
e 975 998
e 977 982
