txt_Ins/graph-1000-755.txt
n 1000
e 0 596
e 0 982
e 0 921
e 0 503
e 0 23
e 1 841
e 1 430
e 1 855
e 1 481
e 2 521
e 2 420
e 2 996
e 2 149
e 4 471
e 4 384
e 4 401
e 6 226
e 6 368
e 6 583
e 6 687
e 6 987
e 7 47
e 7 484
e 7 62
e 7 954
e 8 724
e 8 499
e 8 700
e 8 383
e 9 569
e 9 478
e 9 880
e 9 97
e 10 201
e 10 722
e 10 775
e 10 234
e 11 190
e 11 643
e 11 364
e 11 710
e 16 369
e 16 148
e 16 221
e 16 316
e 17 186
e 17 432
e 17 896
e 17 421
e 17 832
e 18 546
e 18 381
e 18 423
e 21 728
e 21 667
e 21 859
e 21 583
e 22 327
e 22 896
e 22 695
e 22 843
e 22 728
e 22 564
e 22 282
e 23 609
e 23 370
e 24 638
e 24 186
e 24 812
e 24 788
e 24 214
e 24 958
e 25 770
e 25 808
e 25 274
e 25 187
e 25 969
e 26 729
e 26 745
e 26 187
e 26 381
e 28 309
e 28 382
e 28 953
e 28 789
e 29 950
e 29 354
e 29 35
e 29 804
e 29 200
e 31 894
e 31 353
e 31 629
e 31 768
e 31 60
e 31 274
e 32 534
e 32 756
e 32 615
e 32 237
e 32 471
e 34 997
e 34 800
e 34 952
e 35 458
e 35 38
e 35 658
e 35 736
e 35 363
e 35 157
e 35 174
e 36 259
e 36 216
e 36 436
e 36 197
e 36 300
e 36 105
e 37 677
e 37 849
e 37 672
e 37 326
e 37 915
e 38 326
e 38 864
e 38 961
e 38 728
e 39 250
e 39 772
e 39 969
e 39 120
e 39 680
e 39 637
e 40 378
e 40 874
e 40 140
e 40 90
e 41 67
e 41 829
e 41 193
e 43 875
e 43 723
e 43 160
e 43 991
e 44 604
e 44 934
e 44 846
e 45 377
e 45 831
e 45 779
e 45 401
e 45 199
e 46 259
e 46 67
e 46 144
e 47 343
e 47 628
e 47 828
e 49 990
e 49 478
e 49 173
e 49 266
e 49 572
e 49 412
e 49 734
e 51 958
e 51 141
e 51 199
e 52 152
e 52 455
e 52 122
e 56 894
e 56 142
e 56 724
e 56 564
e 57 507
e 57 519
e 57 996
e 58 779
e 58 770
e 58 162
e 58 975
e 59 977
e 59 159
e 59 343
e 59 734
e 59 752
e 60 95
e 60 274
e 60 487
e 60 259
e 60 752
e 60 498
e 61 677
e 61 529
e 61 902
e 61 676
e 61 314
e 61 115
e 61 841
e 61 928
e 62 934
e 62 122
e 62 426
e 62 700
e 63 562
e 63 966
e 63 591
e 63 721
e 63 333
e 63 126
e 64 802
e 64 197
e 64 804
e 64 91
e 64 199
e 64 204
e 64 822
e 65 522
e 65 945
e 65 157
e 66 399
e 66 150
e 66 177
e 66 554
e 67 440
e 67 200
e 69 377
e 69 937
e 69 567
e 69 214
e 69 785
e 70 128
e 70 523
e 70 433
e 70 326
e 70 496
e 70 777
e 70 844
e 70 662
e 71 81
e 71 735
e 71 610
e 71 966
e 71 893
e 72 463
e 72 420
e 72 149
e 72 431
e 73 368
e 73 251
e 73 807
e 74 842
e 74 207
e 74 411
e 74 162
e 74 444
e 78 374
e 78 696
e 78 179
e 78 524
e 78 266
e 79 218
e 79 690
e 79 906
e 79 426
e 79 475
e 81 921
e 81 765
e 81 751
e 83 466
e 83 580
e 83 389
e 84 657
e 84 746
e 84 793
e 84 207
e 84 469
e 84 418
e 84 529
e 84 299
e 85 991
e 85 907
e 85 820
e 86 381
e 86 566
e 86 196
e 86 946
e 90 118
e 90 677
e 90 465
e 90 708
e 91 331
e 91 805
e 91 358
e 91 394
e 91 299
e 92 795
e 92 901
e 92 200
e 93 447
e 93 440
e 93 452
e 93 640
e 93 642
e 94 930
e 94 240
e 94 217
e 94 894
e 95 698
e 95 447
e 95 722
e 95 741
e 95 367
e 95 433
e 96 711
e 96 252
e 96 137
e 96 138
e 97 871
e 97 859
e 97 202
e 97 571
e 97 310
e 98 932
e 98 659
e 98 339
e 98 841
e 98 741
e 98 797
e 98 930
e 98 662
e 102 646
e 102 454
e 102 554
e 103 708
e 103 405
e 103 448
e 103 488
e 103 957
e 103 754
e 105 143
e 105 226
e 105 356
e 105 367
e 105 822
e 105 497
e 105 279
e 106 916
e 106 197
e 106 354
e 106 158
e 109 847
e 109 686
e 109 960
e 109 348
e 110 181
e 110 321
e 110 513
e 110 158
e 110 115
e 113 489
e 113 585
e 113 852
e 113 654
e 113 374
e 113 185
e 115 339
e 115 245
e 115 848
e 116 646
e 116 180
e 116 170
e 116 685
e 118 280
e 118 736
e 119 902
e 119 235
e 119 170
e 119 664
e 119 991
e 120 226
e 120 321
e 120 406
e 122 744
e 122 508
e 122 529
e 122 612
e 122 390
e 122 210
e 124 864
e 124 824
e 124 250
e 124 828
e 124 855
e 126 982
e 126 359
e 126 368
e 126 218
e 127 988
e 127 524
e 127 252
e 127 747
e 127 306
e 127 585
e 127 752
e 128 144
e 128 428
e 129 292
e 129 593
e 129 367
e 129 681
e 129 947
e 131 561
e 131 421
e 131 234
e 132 354
e 132 971
e 132 484
e 132 280
e 132 885
e 134 384
e 134 159
e 134 387
e 136 634
e 136 457
e 136 517
e 136 602
e 137 797
e 137 463
e 137 214
e 137 210
e 137 364
e 138 337
e 138 727
e 138 153
e 138 498
e 140 843
e 140 282
e 140 528
e 141 720
e 141 892
e 141 891
e 142 686
e 142 539
e 142 990
e 142 847
e 142 365
e 143 528
e 143 694
e 143 465
e 143 540
e 143 482
e 144 595
e 144 164
e 144 368
e 144 366
e 144 203
e 144 945
e 145 781
e 145 977
e 145 391
e 145 659
e 145 645
e 146 948
e 146 594
e 146 318
e 146 849
e 148 217
e 148 452
e 148 931
e 149 822
e 150 516
e 150 343
e 150 236
e 150 200
e 150 563
e 150 836
e 150 305
e 152 666
e 152 330
e 152 387
e 153 369
e 153 789
e 153 485
e 154 326
e 154 686
e 154 931
e 155 809
e 155 642
e 155 303
e 155 787
e 155 707
e 156 741
e 156 613
e 156 628
e 156 221
e 156 916
e 156 666
e 157 227
e 158 358
e 159 199
e 159 866
e 160 284
e 160 577
e 160 358
e 160 727
e 160 398
e 160 669
e 162 478
e 162 361
e 162 708
e 162 728
e 163 723
e 163 211
e 163 599
e 163 546
e 163 791
e 164 411
e 164 784
e 164 649
e 164 187
e 166 449
e 166 960
e 166 285
e 167 416
e 167 242
e 167 515
e 167 513
e 167 329
e 169 341
e 169 698
e 169 430
e 169 924
e 170 832
e 170 172
e 170 695
e 170 968
e 172 815
e 172 781
e 173 685
e 173 954
e 173 382
e 173 796
e 173 182
e 174 631
e 174 661
e 174 219
e 175 233
e 175 563
e 175 608
e 175 673
e 175 628
e 175 496
e 175 222
e 176 414
e 176 644
e 176 528
e 177 184
e 177 593
e 177 571
e 177 496
e 177 866
e 177 321
e 177 939
e 179 703
e 179 320
e 179 283
e 179 915
e 179 241
e 179 292
e 180 949
e 180 866
e 181 328
e 181 241
e 181 913
e 181 279
e 181 987
e 182 663
e 182 767
e 183 964
e 183 954
e 183 203
e 183 497
e 183 929
e 183 334
e 183 818
e 184 631
e 184 332
e 185 490
e 185 347
e 185 210
e 185 951
e 185 475
e 186 188
e 186 719
e 186 605
e 186 669
e 187 495
e 187 340
e 188 996
e 188 495
e 190 436
e 190 455
e 191 710
e 191 731
e 191 397
e 193 360
e 193 975
e 196 245
e 196 203
e 197 409
e 197 534
e 197 555
e 198 687
e 198 357
e 198 746
e 199 966
e 199 867
e 200 937
e 200 833
e 201 918
e 201 614
e 201 240
e 202 908
e 202 833
e 202 817
e 203 828
e 203 373
e 203 876
e 203 692
e 204 843
e 204 674
e 204 876
e 205 541
e 205 888
e 205 795
e 205 770
e 206 581
e 206 624
e 206 505
e 207 817
e 207 503
e 208 878
e 208 398
e 208 893
e 209 576
e 209 659
e 209 503
e 209 714
e 210 286
e 210 272
e 210 289
e 210 571
e 210 698
e 210 467
e 211 826
e 211 659
e 211 855
e 214 510
e 215 285
e 215 289
e 215 752
e 216 789
e 216 374
e 216 296
e 216 390
e 216 331
e 217 251
e 217 519
e 217 605
e 218 773
e 218 407
e 219 628
e 219 576
e 219 942
e 219 797
e 219 745
e 220 968
e 220 723
e 220 335
e 220 950
e 220 768
e 220 789
e 221 382
e 222 679
e 222 352
e 222 898
e 223 420
e 223 282
e 223 694
e 224 799
e 224 964
e 224 337
e 225 534
e 225 602
e 225 832
e 226 946
e 226 895
e 226 966
e 227 680
e 227 327
e 227 306
e 227 289
e 227 766
e 227 326
e 230 409
e 230 254
e 230 369
e 231 306
e 231 692
e 231 294
e 233 795
e 233 496
e 233 802
e 233 931
e 233 415
e 234 930
e 234 566
e 234 784
e 234 870
e 235 321
e 235 487
e 235 460
e 235 468
e 235 732
e 236 240
e 236 406
e 236 751
e 237 306
e 237 830
e 238 798
e 238 947
e 238 469
e 238 513
e 238 719
e 239 925
e 239 423
e 239 971
e 240 454
e 240 608
e 240 848
e 241 537
e 242 328
e 242 625
e 242 508
e 242 426
e 242 990
e 242 937
e 245 545
e 245 369
e 246 352
e 246 844
e 246 704
e 246 654
e 247 986
e 247 781
e 247 867
e 247 735
e 247 745
e 247 365
e 247 420
e 247 336
e 248 602
e 248 909
e 248 577
e 248 464
e 248 658
e 249 629
e 249 310
e 249 740
e 249 688
e 250 355
e 251 664
e 251 715
e 251 624
e 251 600
e 251 570
e 252 661
e 252 736
e 252 718
e 253 377
e 253 336
e 253 725
e 254 867
e 254 632
e 254 276
e 254 703
e 254 522
e 256 570
e 256 815
e 256 895
e 256 370
e 259 300
e 259 646
e 259 947
e 259 902
e 264 471
e 264 960
e 264 673
e 264 681
e 264 442
e 264 552
e 264 496
e 265 304
e 265 422
e 265 775
e 266 585
e 266 895
e 266 523
e 267 905
e 267 583
e 267 477
e 267 646
e 267 499
e 270 888
e 270 374
e 270 932
e 272 812
e 272 445
e 272 853
e 274 287
e 274 772
e 274 406
e 275 540
e 275 975
e 275 832
e 276 519
e 276 449
e 276 784
e 276 969
e 277 963
e 277 917
e 277 361
e 277 311
e 277 355
e 278 956
e 278 608
e 278 904
e 278 376
e 279 797
e 279 327
e 280 643
e 280 764
e 280 625
e 280 935
e 283 899
e 283 661
e 283 679
e 283 299
e 283 324
e 284 571
e 284 717
e 285 425
e 285 981
e 285 487
e 285 931
e 285 773
e 285 287
e 286 310
e 286 684
e 286 608
e 286 678
e 287 472
e 287 966
e 289 794
e 289 661
e 292 617
e 292 857
e 292 876
e 292 785
e 292 511
e 293 757
e 293 370
e 293 391
e 294 889
e 294 920
e 294 942
e 294 405
e 295 957
e 295 496
e 295 676
e 295 539
e 296 901
e 296 648
e 299 529
e 300 449
e 300 905
e 300 971
e 300 343
e 300 605
e 300 632
e 300 552
e 302 341
e 302 689
e 302 482
e 302 642
e 302 734
e 303 870
e 303 828
e 303 787
e 303 484
e 304 647
e 304 853
e 305 798
e 305 400
e 306 549
e 306 953
e 306 318
e 306 327
e 306 710
e 309 987
e 309 788
e 309 897
e 310 613
e 310 349
e 311 688
e 311 995
e 311 591
e 311 876
e 314 674
e 314 668
e 314 798
e 314 698
e 314 474
e 316 471
e 316 643
e 316 935
e 316 466
e 318 836
e 318 336
e 318 652
e 318 776
e 318 922
e 318 944
e 319 844
e 319 687
e 319 615
e 320 536
e 320 484
e 321 347
e 321 615
e 321 585
e 322 928
e 322 485
e 322 462
e 322 868
e 324 353
e 324 472
e 324 974
e 324 515
e 324 604
e 325 468
e 325 782
e 325 348
e 325 900
e 325 482
e 325 640
e 325 818
e 325 486
e 326 594
e 326 785
e 326 597
e 326 924
e 326 484
e 327 960
e 327 953
e 327 915
e 328 777
e 328 478
e 328 490
e 328 900
e 328 442
e 329 444
e 329 535
e 329 950
e 329 773
e 329 585
e 330 725
e 330 457
e 330 842
e 331 376
e 331 466
e 332 509
e 332 805
e 332 835
e 333 523
e 333 922
e 333 654
e 334 952
e 334 841
e 334 387
e 334 421
e 335 891
e 335 877
e 335 676
e 335 549
e 336 576
e 337 615
e 337 360
e 339 509
e 340 628
e 340 605
e 340 433
e 340 947
e 340 577
e 341 486
e 341 533
e 343 504
e 343 956
e 347 876
e 347 595
e 348 632
e 348 431
e 348 778
e 348 649
e 348 511
e 349 365
e 349 737
e 349 395
e 352 951
e 352 993
e 352 907
e 353 457
e 354 688
e 354 787
e 354 537
e 355 747
e 355 470
e 355 575
e 355 495
e 355 948
e 356 984
e 356 824
e 357 497
e 357 796
e 358 648
e 358 956
e 359 835
e 359 487
e 359 709
e 359 869
e 360 399
e 361 793
e 361 852
e 361 987
e 362 878
e 362 500
e 362 724
e 362 871
e 362 378
e 362 638
e 363 672
e 363 804
e 363 721
e 364 597
e 364 729
e 365 801
e 365 527
e 365 394
e 366 872
e 366 814
e 367 926
e 367 837
e 367 928
e 367 408
e 369 788
e 369 868
e 369 925
e 370 906
e 370 671
e 370 729
e 373 583
e 373 831
e 373 784
e 374 808
e 374 666
e 376 678
e 376 480
e 377 974
e 377 976
e 377 690
e 378 645
e 378 596
e 379 714
e 379 432
e 379 995
e 380 975
e 380 859
e 380 881
e 381 407
e 381 961
e 381 752
e 381 562
e 381 709
e 382 956
e 383 891
e 383 681
e 383 799
e 383 686
e 384 843
e 384 788
e 385 480
e 385 617
e 385 753
e 387 956
e 387 802
e 389 764
e 389 409
e 389 395
e 390 999
e 390 661
e 390 829
e 391 775
e 391 822
e 391 773
e 391 680
e 391 837
e 391 447
e 391 878
e 393 877
e 393 649
e 393 969
e 393 397
e 394 463
e 395 942
e 395 522
e 396 797
e 396 787
e 396 470
e 396 585
e 396 778
e 397 432
e 398 898
e 398 607
e 398 536
e 399 687
e 399 478
e 399 731
e 400 877
e 400 977
e 400 671
e 400 867
e 400 690
e 401 596
e 401 638
e 403 971
e 403 586
e 403 838
e 403 664
e 403 934
e 405 880
e 405 906
e 405 465
e 406 667
e 406 478
e 406 491
e 406 581
e 407 861
e 407 760
e 408 777
e 408 675
e 408 705
e 408 613
e 408 787
e 408 993
e 409 957
e 409 628
e 409 707
e 411 848
e 411 631
e 411 473
e 412 723
e 412 537
e 414 777
e 414 648
e 414 732
e 414 905
e 415 524
e 415 946
e 416 529
e 416 721
e 416 674
e 418 948
e 418 937
e 420 709
e 420 754
e 421 517
e 421 828
e 422 970
e 422 868
e 423 515
e 423 982
e 425 434
e 425 956
e 425 473
e 426 947
e 426 751
e 426 572
e 427 648
e 427 552
e 427 904
e 427 964
e 428 823
e 428 466
e 428 893
e 428 591
e 428 951
e 429 853
e 429 894
e 429 837
e 430 826
e 430 902
e 431 833
e 431 573
e 432 971
e 432 549
e 433 475
e 433 447
e 433 613
e 434 765
e 434 436
e 436 662
e 436 877
e 440 543
e 440 607
e 442 907
e 442 640
e 443 976
e 443 537
e 443 867
e 443 890
e 444 734
e 444 524
e 444 908
e 444 767
e 445 826
e 445 509
e 447 820
e 447 644
e 447 523
e 447 489
e 448 814
e 448 621
e 452 765
e 452 477
e 452 593
e 452 798
e 454 719
e 454 656
e 455 599
e 455 471
e 457 789
e 457 925
e 457 904
e 457 841
e 458 952
e 458 902
e 458 971
e 460 803
e 460 853
e 462 535
e 462 974
e 463 675
e 463 845
e 463 571
e 464 705
e 464 815
e 464 899
e 465 628
e 465 968
e 465 674
e 465 881
e 466 801
e 466 940
e 467 954
e 467 929
e 467 735
e 468 771
e 468 652
e 468 478
e 469 562
e 469 776
e 470 519
e 471 918
e 471 557
e 471 580
e 472 666
e 472 853
e 473 950
e 473 787
e 474 725
e 474 489
e 475 528
e 477 709
e 480 871
e 480 944
e 481 849
e 481 591
e 482 509
e 482 694
e 485 928
e 485 573
e 486 527
e 486 580
e 487 741
e 487 564
e 487 687
e 488 717
e 488 807
e 488 599
e 489 788
e 489 655
e 490 830
e 490 926
e 490 663
e 491 779
e 491 511
e 491 913
e 492 926
e 492 835
e 492 577
e 493 950
e 493 534
e 493 928
e 493 625
e 495 800
e 495 527
e 495 702
e 495 624
e 497 535
e 497 644
e 498 838
e 498 629
e 499 929
e 500 600
e 500 568
e 503 544
e 503 799
e 503 724
e 503 657
e 503 800
e 503 843
e 504 734
e 504 837
e 504 772
e 504 908
e 505 950
e 505 899
e 505 522
e 505 715
e 505 681
e 507 976
e 507 630
e 507 676
e 507 950
e 507 620
e 508 765
e 508 534
e 509 608
e 510 585
e 510 595
e 511 753
e 511 771
e 513 975
e 513 970
e 513 883
e 513 779
e 513 945
e 513 829
e 515 745
e 515 803
e 515 947
e 515 760
e 515 702
e 516 566
e 516 613
e 516 793
e 517 522
e 517 596
e 517 557
e 519 647
e 519 961
e 520 668
e 520 869
e 520 776
e 521 923
e 521 833
e 522 754
e 524 534
e 524 772
e 527 533
e 527 832
e 527 593
e 527 784
e 529 887
e 533 878
e 535 698
e 535 864
e 535 555
e 536 666
e 536 658
e 537 557
e 539 808
e 540 618
e 540 977
e 540 801
e 541 678
e 541 655
e 542 942
e 542 678
e 542 662
e 543 776
e 543 877
e 543 636
e 543 727
e 543 679
e 543 850
e 544 805
e 544 998
e 544 850
e 545 586
e 545 604
e 545 804
e 545 814
e 546 832
e 546 572
e 546 647
e 546 715
e 549 674
e 552 685
e 552 647
e 552 895
e 552 561
e 553 961
e 553 872
e 553 817
e 553 868
e 554 896
e 555 715
e 555 722
e 557 743
e 557 814
e 561 736
e 561 563
e 562 579
e 562 907
e 562 934
e 563 697
e 563 846
e 564 754
e 564 928
e 566 889
e 566 928
e 567 954
e 567 833
e 567 808
e 568 630
e 568 850
e 569 781
e 569 777
e 569 740
e 570 934
e 570 709
e 570 610
e 570 818
e 571 812
e 571 999
e 571 608
e 573 701
e 573 612
e 573 999
e 575 730
e 575 767
e 575 643
e 576 646
e 576 711
e 579 718
e 579 883
e 581 643
e 583 934
e 583 753
e 585 707
e 585 868
e 585 736
e 586 983
e 592 939
e 592 687
e 592 800
e 593 766
e 593 751
e 594 902
e 595 891
e 596 706
e 597 808
e 599 764
e 599 998
e 599 878
e 600 607
e 602 889
e 604 883
e 604 814
e 604 731
e 604 957
e 604 793
e 604 672
e 605 782
e 605 690
e 607 625
e 607 940
e 607 701
e 607 753
e 608 722
e 609 833
e 609 829
e 609 906
e 609 940
e 609 885
e 610 942
e 612 637
e 612 845
e 612 620
e 614 636
e 614 949
e 616 715
e 616 981
e 616 804
e 617 970
e 617 620
e 618 740
e 618 638
e 621 867
e 621 922
e 624 875
e 624 720
e 625 909
e 625 763
e 628 905
e 628 829
e 628 689
e 629 663
e 629 720
e 630 647
e 631 968
e 634 704
e 634 828
e 634 909
e 634 877
e 635 700
e 635 843
e 635 931
e 636 737
e 636 684
e 637 757
e 637 849
e 638 655
e 640 823
e 642 995
e 642 879
e 643 964
e 645 960
e 646 796
e 647 956
e 648 670
e 648 775
e 648 963
e 649 899
e 652 830
e 652 853
e 656 888
e 656 881
e 657 798
e 657 861
e 657 881
e 657 892
e 657 969
e 657 890
e 659 872
e 659 824
e 659 829
e 661 896
e 661 692
e 662 857
e 663 668
e 663 957
e 664 721
e 666 694
e 666 798
e 667 848
e 667 740
e 667 753
e 667 895
e 668 721
e 669 905
e 670 885
e 670 688
e 671 875
e 671 969
e 671 747
e 672 861
e 673 928
e 674 889
e 675 887
e 677 706
e 678 697
e 679 988
e 679 777
e 681 877
e 684 709
e 684 956
e 684 787
e 686 802
e 686 770
e 687 724
e 687 975
e 687 906
e 687 779
e 687 798
e 688 771
e 689 701
e 689 719
e 689 987
e 694 832
e 694 706
e 695 964
e 696 940
e 696 861
e 696 934
e 697 855
e 698 887
e 700 734
e 700 905
e 700 953
e 700 709
e 701 768
e 702 735
e 703 776
e 703 741
e 703 820
e 704 756
e 704 853
e 705 711
e 705 823
e 706 909
e 706 720
e 707 904
e 708 866
e 709 857
e 709 892
e 710 893
e 710 879
e 710 885
e 711 890
e 711 782
e 711 996
e 714 953
e 715 947
e 715 858
e 717 958
e 717 804
e 717 719
e 718 838
e 718 942
e 718 777
e 718 905
e 719 724
e 720 944
e 720 859
e 720 996
e 720 896
e 721 730
e 722 946
e 722 953
e 723 981
e 723 793
e 724 777
e 724 996
e 725 736
e 727 785
e 727 799
e 728 776
e 729 924
e 730 939
e 730 976
e 732 942
e 732 809
e 734 836
e 734 930
e 734 817
e 735 984
e 735 804
e 736 795
e 737 768
e 740 924
e 740 930
e 740 804
e 740 844
e 740 898
e 741 794
e 741 913
e 741 969
e 743 812
e 743 808
e 743 945
e 744 988
e 744 830
e 746 986
e 753 779
e 754 932
e 756 949
e 757 767
e 760 868
e 763 777
e 763 935
e 764 951
e 765 917
e 766 960
e 766 926
e 767 842
e 767 838
e 772 956
e 773 926
e 775 946
e 776 831
e 778 801
e 779 859
e 779 971
e 781 867
e 781 836
e 782 877
e 785 804
e 787 944
e 787 807
e 789 803
e 791 917
e 791 897
e 794 842
e 797 944
e 798 969
e 799 883
e 799 826
e 800 984
e 804 891
e 804 809
e 809 845
e 815 864
e 815 953
e 817 887
e 818 869
e 818 889
e 824 828
e 824 869
e 831 919
e 831 855
e 831 888
e 835 976
e 841 942
e 841 872
e 843 983
e 845 918
e 845 970
e 846 923
e 847 897
e 850 935
e 852 892
e 855 963
e 855 858
e 857 931
e 858 864
e 861 874
e 861 919
e 861 953
e 868 920
e 870 939
e 870 946
e 870 942
e 872 945
e 874 993
e 879 950
e 880 931
e 880 917
e 882 940
e 882 950
e 882 974
e 885 937
e 885 954
e 887 995
e 892 969
e 892 990
e 895 918
e 897 923
e 899 940
e 900 983
e 901 929
e 901 957
e 904 981
e 905 983
e 905 921
e 908 960
e 909 986
e 913 966
e 916 974
e 919 970
e 920 969
e 922 991
e 925 937
e 926 997
e 930 998
e 935 984
e 953 970
e 966 983
e 974 997
e 976 981
